44056583441096051715015,3,1,2,09,1,1,2,013,11,1,2,015,10,1,2,04,5,1,2,01,1,1,2,08,10,1,2,013,5,1,2,06,7,1,2,06,3,1,2,05,12,1,2,014,15,1,2,08,6,1,2,010,6,1,2,02,9,1,2,08,12,1,2,04,4,1,2,03,2,1,2,012,5,1,2,04,9,1,2,04,4,1,2,06,15,1,2,06,5,1,2,05,2,1,2,011,12,1,2,015,15,1,2,01,5,1,2,08,2,1,2,03,1,1,2,05,7,1,2,09,1,1,2,011,11,1,2,010,9,1,2,02,6,1,2,012,1,1,2,03,4,1,2,011,1,1,2,011,1,1,2,06,15,1,2,015,3,1,2,010,11,1,2,08,11,1,2,09,3,1,2,03,13,1,2,09,5,1,2,01,2,1,2,011,9,1,2,011,8,1,2,015,6,1,2,01,10,1,2,0